000 001 003 012 003 001 002 001 001 000 001 001 002 002 003 006 009 011 011 006 003 004 002 002 002 002 003 002 003 003 005
000 000 003 011 011 002 002 001 000 000 001 001 003 002 003 005 018 017 013 007 004 003 001 002 001 002 004 002 003 003 003
000 000 004 012 013 002 002 002 003 001 002 001 002 003 003 004 013 026 013 007 006 005 002 001 001 002 003 003 003 003 003
001 001 006 008 006 002 002 003 005 002 003 002 003 004 004 003 015 015 007 006 010 008 006 002 002 003 003 003 003 004 004
001 003 008 006 001 001 002 003 005 003 003 003 005 008 007 005 006 011 003 004 007 012 005 002 002 004 002 003 007 015 008
002 006 005 004 002 001 001 001 002 002 003 004 006 009 006 005 005 004 003 002 006 006 004 002 003 010 004 003 008 016 008
002 006 011 003 001 000 000 001 001 001 001 003 005 006 006 006 002 001 001 001 002 004 003 002 003 009 017 004 003 010 010
002 005 003 002 002 001 001 000 001 001 001 005 006 005 006 004 002 001 001 001 001 002 003 001 002 007 006 004 003 006 007
002 007 003 003 001 001 001 001 000 000 001 004 010 022 006 004 002 002 002 001 001 002 002 002 002 009 007 003 002 003 005
002 005 004 004 003 001 001 000 000 000 000 002 009 029 004 003 002 003 003 002 001 002 003 005 003 004 011 003 002 003 004
001 004 003 004 001 000 000 000 000 000 000 002 003 007 007 005 004 002 003 001 001 002 003 007 003 004 006 003 004 005 005
001 004 003 003 002 000 000 000 000 000 000 001 002 005 006 006 004 002 002 003 002 003 004 009 003 004 004 002 004 008 013
002 003 002 002 001 000 000 000 000 000 001 001 002 004 007 007 004 001 002 001 002 002 003 008 004 002 004 003 010 020 018
003 002 001 001 000 000 000 000 000 000 000 001 001 002 002 006 004 001 001 003 003 003 007 011 005 002 005 011 026 031 017
003 004 001 001 001 001 001 000 000 000 000 000 001 001 001 001 002 001 001 002 003 005 007 015 006 005 007 018 024 029 019
003 001 001 002 002 002 002 002 000 001 001 001 000 002 002 001 002 001 001 004 004 010 008 017 011 007 014 033 044 034 058
002 001 001 001 001 001 002 002 001 001 002 002 001 001 001 001 003 002 002 003 003 007 009 012 014 011 007 028 036 037 031
001 002 001 001 001 002 002 003 003 003 001 001 001 000 001 001 002 002 001 002 003 002 004 010 011 011 006 022 021 021 026
001 003 002 002 003 007 004 009 002 002 001 001 000 000 000 001 001 001 000 001 009 003 004 005 006 010 008 014 014 012 025
001 003 004 001 005 013 004 003 002 002 001 001 000 000 000 000 001 000 000 000 006 006 008 006 006 006 008 015 015 012 029
002 006 005 004 007 011 003 002 002 002 001 000 000 000 000 000 000 000 000 000 003 004 015 013 006 004 008 015 015 013 028
002 006 006 007 006 010 002 001 002 001 000 000 000 000 000 000 000 000 000 000 001 003 012 015 006 005 007 014 014 011 017
002 003 004 006 007 008 002 001 001 000 000 000 000 000 000 000 000 000 000 000 000 003 008 012 007 005 007 012 012 010 010
001 001 001 001 003 002 001 001 001 001 001 000 000 000 000 000 000 000 000 000 000 003 006 011 008 006 010 -99 013 013 012
001 001 001 000 000 000 000 001 001 001 000 000 000 000 000 000 000 000 000 000 001 003 006 013 008 006 010 -99 014 018 017
000 000 000 000 000 000 001 001 001 002 000 000 000 000 000 000 000 000 000 000 001 002 006 014 -99 -99 -99 019 017 015 039
000 000 001 003 001 001 001 001 001 001 000 000 000 000 000 000 000 000 000 001 004 005 007 012 011 -99 021 019 021 019 029
001 001 002 003 002 002 001 000 000 000 000 000 000 000 000 001 000 000 001 003 004 006 007 014 012 -99 019 024 028 024 020
001 001 002 002 002 001 002 001 000 000 000 001 000 000 000 001 001 000 000 001 002 005 014 012 012 011 011 015 018 016 018
000 000 000 001 001 001 001 001 000 000 000 001 001 001 001 001 001 001 000 001 001 002 009 010 020 008 010 008 007 008 015
001 000 001 000 001 001 000 000 000 000 000 001 001 001 001 001 002 002 002 000 002 005 004 007 013 008 007 005 004 006 009
002 001 001 000 000 000 000 000 000 001 001 001 001 000 000 000 001 003 001 003 004 004 004 004 008 006 005 003 003 004 003
001 000 000 000 000 000 000 000 000 000 000 001 001 000 000 000 001 002 002 004 005 003 004 005 008 004 002 001 002 002 001
000 000 000 000 000 000 000 000 000 000 001 000 000 000 000 000 000 001 002 003 003 003 004 006 012 008 002 001 001 001 001
000 000 000 000 000 000 000 000 001 001 000 000 000 000 000 000 000 000 001 004 001 003 006 016 018 008 003 002 001 000 000
000 000 000 000 000 000 000 001 002 001 000 000 000 000 000 000 000 000 002 006 002 004 007 009 012 011 005 003 002 001 000
000 001 000 000 000 000 000 001 002 001 000 000 000 000 000 000 000 000 006 005 005 004 004 002 008 008 012 004 003 001 000
002 001 001 001 001 001 001 002 002 001 000 000 000 000 000 000 000 000 002 002 008 005 002 001 003 008 007 006 004 001 000
004 001 002 003 002 001 002 002 003 001 000 000 000 000 000 000 000 001 001 002 011 007 003 001 001 005 004 002 002 001 000
002 002 003 003 005 002 002 002 002 000 000 000 001 001 001 001 000 001 001 006 020 012 005 002 001 001 001 002 003 001 000
001 001 002 004 005 004 003 003 001 000 000 001 001 002 001 001 000 003 001 007 019 022 009 004 005 001 001 001 003 002 000
001 001 002 005 008 008 005 003 001 001 001 001 001 001 001 001 004 003 001 007 024 035 012 009 006 003 001 001 003 002 001
000 001 002 003 008 012 011 005 001 000 001 001 000 000 000 000 007 005 001 010 034 021 012 012 005 002 002 000 000 001 001
000 001 000 001 003 008 010 005 001 001 001 001 001 001 000 000 002 002 002 016 026 017 010 004 004 002 003 000 001 002 001
000 000 000 001 003 008 007 004 001 001 001 001 000 000 000 000 001 001 003 005 013 013 006 002 002 004 001 001 003 002 001
000 000 000 001 003 005 003 003 005 002 001 001 000 000 000 000 000 000 000 002 005 004 005 002 001 001 000 003 008 004 001
000 000 000 001 001 001 004 005 002 002 001 000 000 000 000 000 000 000 000 001 003 006 010 003 001 000 000 003 005 004 002
000 000 000 001 001 001 005 004 002 001 000 001 000 000 000 000 000 000 000 000 002 012 019 004 000 000 000 002 007 006 002
-99 000 000 000 000 001 005 002 001 001 001 001 000 000 000 000 000 000 000 000 001 005 005 002 000 000 000 000 011 006 002
-99 000 000 000 000 001 001 001 001 000 001 000 001 001 001 000 000 000 000 000 000 002 002 002 001 000 000 001 002 004 002
-99 -99 -99 000 000 000 000 000 000 000 000 000 001 001 001 000 000 000 000 000 000 000 001 001 001 000 000 000 000 001 001
-99 -99 000 000 000 000 000 001 000 000 000 001 001 001 001 000 000 000 000 000 000 000 001 001 001 000 000 000 000 000 000
000 -99 000 000 000 000 000 000 000 000 001 001 002 001 000 000 000 000 000 000 000 000 000 001 002 000 000 000 000 000 000
000 -99 000 -99 000 000 000 000 000 000 000 001 001 001 000 000 000 000 000 000 000 000 000 001 001 000 000 000 000 -99 -99
000 000 -99 -99 000 000 000 000 000 000 000 000 002 001 000 000 000 000 -99 -99 -99 000 000 001 000 000 000 000 -99 -99 -99
